certificates/rado_a11_c195_N24.cnf
c Rad2 upper bound instance: x1 + 11*x2 - x3 = 195, interval [1,24]
p cnf 24 104
1 4 18 0
-1 -4 -18 0
1 15 19 0
-1 -15 -19 0
2 5 18 0
-2 -5 -18 0
2 16 19 0
-2 -16 -19 0
3 6 18 0
-3 -6 -18 0
3 17 19 0
-3 -17 -19 0
4 7 18 0
-4 -7 -18 0
4 18 19 0
-4 -18 -19 0
5 8 18 0
-5 -8 -18 0
5 19 0
-5 -19 0
6 9 18 0
-6 -9 -18 0
6 19 20 0
-6 -19 -20 0
7 10 18 0
-7 -10 -18 0
7 19 21 0
-7 -19 -21 0
8 11 18 0
-8 -11 -18 0
8 19 22 0
-8 -19 -22 0
1 9 17 0
-1 -9 -17 0
9 12 18 0
-9 -12 -18 0
9 19 23 0
-9 -19 -23 0
2 10 17 0
-2 -10 -17 0
10 13 18 0
-10 -13 -18 0
10 19 24 0
-10 -19 -24 0
3 11 17 0
-3 -11 -17 0
11 14 18 0
-11 -14 -18 0
4 12 17 0
-4 -12 -17 0
12 15 18 0
-12 -15 -18 0
5 13 17 0
-5 -13 -17 0
13 16 18 0
-13 -16 -18 0
6 14 17 0
-6 -14 -17 0
14 17 18 0
-14 -17 -18 0
7 15 17 0
-7 -15 -17 0
15 18 0
-15 -18 0
8 16 17 0
-8 -16 -17 0
16 18 19 0
-16 -18 -19 0
9 17 0
-9 -17 0
17 18 20 0
-17 -18 -20 0
10 17 18 0
-10 -17 -18 0
18 21 0
-18 -21 0
11 17 19 0
-11 -17 -19 0
18 19 22 0
-18 -19 -22 0
1 16 20 0
-1 -16 -20 0
12 17 20 0
-12 -17 -20 0
18 20 23 0
-18 -20 -23 0
2 16 21 0
-2 -16 -21 0
13 17 21 0
-13 -17 -21 0
18 21 24 0
-18 -21 -24 0
3 16 22 0
-3 -16 -22 0
14 17 22 0
-14 -17 -22 0
4 16 23 0
-4 -16 -23 0
15 17 23 0
-15 -17 -23 0
5 16 24 0
-5 -16 -24 0
16 17 24 0
-16 -17 -24 0
