certificates/rado_a11_c195_N24.drat
18 -23 -24 0
-5 -18 -24 0
-23 -24 0
d 18 -23 -24 0
-18 -19 23 0
-19 -24 0
-24 0
19 23 0
d 9 19 23 0
23 0
-19 0
5 0
10 0
18 0
-15 0
-21 0
-20 0
-2 0
-8 0
-7 0
-13 0
-17 0
1 0
0
